40 780
1 2 87
1 3 43
1 4 5
1 5 54
1 6 62
1 7 88
1 8 19
1 9 71
1 10 89
1 11 3
1 12 101
1 13 106
1 14 9
1 15 4
1 16 11
1 17 81
1 18 3
1 19 65
1 20 34
1 21 35
1 22 24
1 23 42
1 24 82
1 25 10
1 26 84
1 27 50
1 28 100
1 29 100
1 30 57
1 31 69
1 32 38
1 33 77
1 34 11
1 35 62
1 36 11
1 37 90
1 38 29
1 39 52
1 40 93
2 3 90
2 4 111
2 5 64
2 6 11
2 7 6
2 8 110
2 9 94
2 10 68
2 11 62
2 12 105
2 13 30
2 14 80
2 15 83
2 16 50
2 17 101
2 18 74
2 19 35
2 20 61
2 21 50
2 22 45
2 23 24
2 24 111
2 25 11
2 26 115
2 27 93
2 28 47
2 29 43
2 30 75
2 31 50
2 32 98
2 33 105
2 34 107
2 35 113
2 36 68
2 37 92
2 38 48
2 39 84
2 40 82
3 4 81
3 5 59
3 6 98
3 7 80
3 8 18
3 9 78
3 10 25
3 11 70
3 12 14
3 13 118
3 14 61
3 15 58
3 16 51
3 17 31
3 18 118
3 19 0
3 20 108
3 21 78
3 22 53
3 23 105
3 24 79
3 25 1
3 26 112
3 27 14
3 28 19
3 29 97
3 30 76
3 31 59
3 32 7
3 33 104
3 34 78
3 35 70
3 36 70
3 37 106
3 38 98
3 39 40
3 40 17
4 5 100
4 6 72
4 7 89
4 8 9
4 9 82
4 10 81
4 11 119
4 12 95
4 13 82
4 14 32
4 15 68
4 16 0
4 17 71
4 18 64
4 19 112
4 20 94
4 21 99
4 22 82
4 23 84
4 24 72
4 25 66
4 26 37
4 27 8
4 28 59
4 29 60
4 30 78
4 31 92
4 32 89
4 33 62
4 34 82
4 35 49
4 36 48
4 37 43
4 38 83
4 39 70
4 40 69
5 6 63
5 7 94
5 8 97
5 9 6
5 10 15
5 11 48
5 12 107
5 13 1
5 14 47
5 15 0
5 16 63
5 17 93
5 18 36
5 19 59
5 20 105
5 21 62
5 22 48
5 23 53
5 24 102
5 25 19
5 26 30
5 27 7
5 28 45
5 29 41
5 30 38
5 31 58
5 32 55
5 33 6
5 34 0
5 35 89
5 36 97
5 37 100
5 38 16
5 39 114
5 40 63
6 7 13
6 8 12
6 9 67
6 10 77
6 11 118
6 12 37
6 13 74
6 14 47
6 15 116
6 16 68
6 17 102
6 18 5
6 19 104
6 20 9
6 21 10
6 22 84
6 23 104
6 24 31
6 25 57
6 26 0
6 27 40
6 28 116
6 29 60
6 30 30
6 31 36
6 32 86
6 33 79
6 34 78
6 35 99
6 36 10
6 37 97
6 38 73
6 39 10
6 40 100
7 8 19
7 9 49
7 10 101
7 11 79
7 12 98
7 13 113
7 14 99
7 15 37
7 16 36
7 17 22
7 18 77
7 19 62
7 20 47
7 21 55
7 22 53
7 23 61
7 24 73
7 25 30
7 26 50
7 27 86
7 28 38
7 29 39
7 30 4
7 31 0
7 32 16
7 33 74
7 34 93
7 35 79
7 36 26
7 37 85
7 38 41
7 39 22
7 40 96
8 9 37
8 10 92
8 11 24
8 12 72
8 13 113
8 14 32
8 15 34
8 16 27
8 17 43
8 18 53
8 19 62
8 20 4
8 21 100
8 22 21
8 23 47
8 24 24
8 25 93
8 26 96
8 27 2
8 28 79
8 29 117
8 30 115
8 31 110
8 32 80
8 33 115
8 34 2
8 35 1
8 36 40
8 37 61
8 38 39
8 39 57
8 40 82
9 10 47
9 11 25
9 12 88
9 13 64
9 14 104
9 15 91
9 16 5
9 17 111
9 18 30
9 19 32
9 20 46
9 21 22
9 22 33
9 23 98
9 24 76
9 25 3
9 26 22
9 27 26
9 28 106
9 29 30
9 30 77
9 31 87
9 32 84
9 33 7
9 34 0
9 35 4
9 36 13
9 37 51
9 38 116
9 39 15
9 40 32
10 11 49
10 12 2
10 13 70
10 14 97
10 15 109
10 16 75
10 17 52
10 18 79
10 19 85
10 20 25
10 21 53
10 22 11
10 23 112
10 24 25
10 25 25
10 26 79
10 27 92
10 28 81
10 29 114
10 30 24
10 31 107
10 32 30
10 33 106
10 34 47
10 35 76
10 36 21
10 37 82
10 38 32
10 39 56
10 40 39
11 12 27
11 13 73
11 14 85
11 15 11
11 16 42
11 17 88
11 18 113
11 19 117
11 20 41
11 21 20
11 22 66
11 23 14
11 24 9
11 25 61
11 26 2
11 27 111
11 28 14
11 29 93
11 30 11
11 31 61
11 32 119
11 33 78
11 34 25
11 35 6
11 36 77
11 37 8
11 38 5
11 39 115
11 40 84
12 13 17
12 14 7
12 15 36
12 16 20
12 17 82
12 18 43
12 19 82
12 20 9
12 21 79
12 22 119
12 23 71
12 24 36
12 25 72
12 26 14
12 27 43
12 28 29
12 29 55
12 30 119
12 31 117
12 32 42
12 33 115
12 34 99
12 35 76
12 36 36
12 37 106
12 38 28
12 39 115
12 40 80
13 14 104
13 15 2
13 16 55
13 17 29
13 18 119
13 19 41
13 20 14
13 21 20
13 22 112
13 23 103
13 24 14
13 25 27
13 26 2
13 27 89
13 28 118
13 29 63
13 30 52
13 31 3
13 32 84
13 33 75
13 34 118
13 35 5
13 36 88
13 37 50
13 38 75
13 39 26
13 40 22
14 15 29
14 16 30
14 17 23
14 18 101
14 19 18
14 20 6
14 21 81
14 22 7
14 23 108
14 24 15
14 25 24
14 26 94
14 27 84
14 28 94
14 29 58
14 30 12
14 31 1
14 32 35
14 33 104
14 34 49
14 35 74
14 36 15
14 37 106
14 38 43
14 39 7
14 40 1
15 16 119
15 17 46
15 18 38
15 19 22
15 20 72
15 21 6
15 22 26
15 23 86
15 24 38
15 25 102
15 26 75
15 27 104
15 28 53
15 29 62
15 30 73
15 31 36
15 32 10
15 33 31
15 34 62
15 35 83
15 36 27
15 37 49
15 38 36
15 39 1
15 40 49
16 17 119
16 18 104
16 19 51
16 20 45
16 21 68
16 22 93
16 23 89
16 24 53
16 25 100
16 26 82
16 27 48
16 28 115
16 29 85
16 30 73
16 31 119
16 32 95
16 33 71
16 34 33
16 35 28
16 36 78
16 37 98
16 38 78
16 39 40
16 40 34
17 18 14
17 19 61
17 20 37
17 21 34
17 22 53
17 23 119
17 24 109
17 25 34
17 26 34
17 27 30
17 28 84
17 29 41
17 30 97
17 31 42
17 32 104
17 33 117
17 34 112
17 35 49
17 36 74
17 37 36
17 38 47
17 39 51
17 40 76
18 19 107
18 20 56
18 21 101
18 22 68
18 23 88
18 24 62
18 25 32
18 26 95
18 27 45
18 28 106
18 29 24
18 30 29
18 31 56
18 32 48
18 33 28
18 34 70
18 35 96
18 36 102
18 37 18
18 38 103
18 39 118
18 40 108
19 20 62
19 21 100
19 22 115
19 23 87
19 24 47
19 25 17
19 26 28
19 27 32
19 28 76
19 29 100
19 30 82
19 31 97
19 32 72
19 33 52
19 34 73
19 35 64
19 36 18
19 37 97
19 38 103
19 39 98
19 40 12
20 21 109
20 22 79
20 23 119
20 24 69
20 25 42
20 26 59
20 27 33
20 28 101
20 29 13
20 30 64
20 31 109
20 32 15
20 33 40
20 34 9
20 35 52
20 36 20
20 37 84
20 38 115
20 39 35
20 40 42
21 22 66
21 23 10
21 24 95
21 25 10
21 26 20
21 27 98
21 28 70
21 29 36
21 30 67
21 31 9
21 32 86
21 33 10
21 34 85
21 35 49
21 36 38
21 37 54
21 38 6
21 39 39
21 40 107
22 23 75
22 24 103
22 25 34
22 26 80
22 27 111
22 28 62
22 29 2
22 30 48
22 31 55
22 32 38
22 33 88
22 34 101
22 35 110
22 36 102
22 37 23
22 38 22
22 39 33
22 40 100
23 24 119
23 25 2
23 26 53
23 27 6
23 28 20
23 29 57
23 30 45
23 31 80
23 32 35
23 33 3
23 34 103
23 35 34
23 36 48
23 37 73
23 38 98
23 39 5
23 40 102
24 25 44
24 26 96
24 27 25
24 28 0
24 29 112
24 30 70
24 31 80
24 32 9
24 33 85
24 34 29
24 35 11
24 36 113
24 37 67
24 38 27
24 39 87
24 40 115
25 26 55
25 27 61
25 28 55
25 29 83
25 30 112
25 31 83
25 32 3
25 33 64
25 34 31
25 35 63
25 36 96
25 37 44
25 38 83
25 39 28
25 40 98
26 27 0
26 28 9
26 29 109
26 30 38
26 31 32
26 32 113
26 33 55
26 34 39
26 35 91
26 36 112
26 37 5
26 38 48
26 39 90
26 40 105
27 28 84
27 29 8
27 30 108
27 31 58
27 32 84
27 33 38
27 34 105
27 35 113
27 36 49
27 37 0
27 38 22
27 39 6
27 40 60
28 29 26
28 30 3
28 31 28
28 32 67
28 33 60
28 34 31
28 35 59
28 36 43
28 37 47
28 38 118
28 39 88
28 40 118
29 30 71
29 31 72
29 32 59
29 33 110
29 34 9
29 35 114
29 36 70
29 37 29
29 38 118
29 39 28
29 40 30
30 31 46
30 32 76
30 33 29
30 34 88
30 35 62
30 36 42
30 37 116
30 38 11
30 39 105
30 40 93
31 32 31
31 33 8
31 34 100
31 35 95
31 36 106
31 37 5
31 38 55
31 39 10
31 40 28
32 33 100
32 34 104
32 35 94
32 36 15
32 37 86
32 38 21
32 39 15
32 40 30
33 34 93
33 35 5
33 36 58
33 37 75
33 38 106
33 39 72
33 40 31
34 35 34
34 36 5
34 37 31
34 38 73
34 39 10
34 40 119
35 36 111
35 37 75
35 38 57
35 39 103
35 40 29
36 37 119
36 38 18
36 39 81
36 40 73
37 38 39
37 39 48
37 40 59
38 39 30
38 40 60
39 40 70
